results/x-long/X-n162-k11.vrp_seed-8.out
14147	1131
