results/x-long/X-n162-k11.vrp_seed-8.vrp.sol
Route #1: 29 10 105 144 119 141 115 156 59
Route #2: 161 77 97 117 27 9 21 60 55 1 14 89 149 17 127
Route #3: 155 92 125 93 132 87 4 101 151 146 39 137 108 158 91 136
Route #4: 54 76 41 61 46 69 65 70 113 63 104 83 98 47 25
Route #5: 23 24 49 6 13 71 37 131 57 32 16 5 120 81 74
Route #6: 15 139 126 138 133 107 122 84 160 85 121 147 159 135 72
Route #7: 143 153 110 128 124 134 148 109 2 82 118 30 157 112 40 103
Route #8: 79 20 67 62 114 95 129 88 106 100 31 140 154 111 80
Route #9: 52 116 102 96 142 43 123 56 66 94 36 35 99 130 86 53
Route #10: 8 42 51 12 64 18 19 3 33 75 44 7 34 22 78
Route #11: 150 90 145 68 58 38 73 11 48 26 28 152 45 50
Cost 14147.000000